
Gurobi 9.5.1 (linux64, Python) logging started Tue May 16 20:44:54 2023

Set parameter WLSAccessID
Set parameter WLSSecret
Set parameter LicenseID
Set parameter LogFile to value "gurobi.log"

Gurobi 9.5.1 (linux64, Python) logging started Wed May 17 12:17:14 2023

Set parameter WLSAccessID
Set parameter WLSSecret
Set parameter LicenseID
Set parameter LogFile to value "gurobi.log"

Gurobi 10.0.0 (linux64, Python) logging started Wed May 17 12:44:35 2023

Set parameter WLSAccessID
Set parameter WLSSecret
Set parameter LicenseID to value 2378159
Set parameter LogFile to value "gurobi.log"
Academic license - for non-commercial use only - registered to yashwant@mail.uni-paderborn.de

Gurobi 10.0.0 (linux64, Python) logging started Wed May 17 13:44:22 2023

Set parameter TokenServer to value "license3.uni-paderborn.de"
Set parameter LogFile to value "gurobi.log"

Gurobi 10.0.0 (linux64, Python) logging started Wed May 17 15:32:49 2023

Set parameter TokenServer to value "license3.uni-paderborn.de"
Set parameter LogFile to value "gurobi.log"

Gurobi 10.0.0 (linux64, Python) logging started Wed May 17 15:48:23 2023

Set parameter TokenServer to value "license3.uni-paderborn.de"
Set parameter LogFile to value "gurobi.log"

Gurobi 10.0.0 (linux64, Python) logging started Wed May 17 17:01:28 2023

Set parameter TokenServer to value "license3.uni-paderborn.de"
Set parameter LogFile to value "gurobi.log"

Gurobi 10.0.0 (linux64, Python) logging started Wed May 17 20:19:59 2023

Set parameter WLSAccessID
Set parameter WLSSecret
Set parameter LicenseID to value 2378159
Set parameter LogFile to value "gurobi.log"
Academic license - for non-commercial use only - registered to yashwant@mail.uni-paderborn.de
